row=9;
column=9;
Board=[|3,0,6,4,0,0,0,0,0|0,0,4,9,0,0,0,0,7|0,0,5,6,3,2,0,0,0|0,0,8,0,1,0,0,4,0|0,0,1,7,0,0,5,0,0|0,6,0,0,0,0,0,7,4|1,4,0,0,0,8,0,0,0|0,3,9,0,7,0,0,0,0|0,0,0,0,0,7,8,0,0|];
Region=[|1,1,1,2,2,2,2,2,3|1,1,1,1,1,2,2,3,3|4,1,4,5,2,2,3,3,3|4,4,4,5,5,5,3,3,3|7,4,4,5,5,5,6,6,6|7,4,4,5,8,6,6,6,6|7,7,7,5,8,6,9,9,6|7,7,8,8,9,9,9,9,9|7,7,8,8,8,8,8,9,9|];
OE=[|1,1,0,0,0,1,1,1,0|1,0,0,1,0,0,1,1,1|0,1,1,0,1,0,1,1,0|1,1,0,0,1,1,0,0,1|0,0,1,1,1,0,1,0,1|1,0,1,0,1,1,0,1,0|1,0,1,1,0,0,1,0,1|0,1,1,1,1,1,0,0,0|0,1,0,1,0,1,0,1,1|];
